1 0 
2 5 
3 20 
4 7 
5 2 
6 19 
7 19 
8 9 
9 15 
10 22 
11 14 
12 15 
13 18 
14 4 
15 6 
16 4 
17 10 
18 16 
19 14 
20 1 
21 23 
22 19 
23 16 
24 22 
25 15 
26 4 
27 21 
28 16 
29 22 
30 6 
31 2 
32 11 
33 5 
34 2 
35 12 
36 6 
37 17 
38 15 
39 11 
40 4 
41 22 
42 13 
43 21 
44 13 
45 20 
46 6 
47 15 
48 22 
49 11 
50 18 
51 8 
52 22 
53 16 
54 7 
55 16 
56 21 
57 16 
58 17 
59 16 
60 23 
61 3 
62 20 
63 13 
64 6 
65 12 
66 15 
